(set-logic QF_S)
(set-option :strings-exp true)
(set-option :produce-models true)
(declare-fun sigmaStar_0 () String)
(declare-fun sigmaStar_1 () String)
(declare-fun literal_3 () String)
(declare-fun x_2 () String)
(declare-fun x_4 () String)
(declare-fun literal_5 () String)
(declare-fun x_6 () String)
(assert (= literal_3 "\x3c\x62\x72\x3e\x3c\x62\x72\x3e\x5c\x6e"))
(assert (or (= x_2 sigmaStar_1) (= x_2 sigmaStar_0)))
(assert (= x_4 (str.++ literal_3 x_2)))
(assert (= literal_5 "\x3c\x62\x72\x3e\x3c\x62\x72\x3e\x5c\x6e"))
(assert (= x_6 (str.++ x_4 literal_5)))
(assert (str.in.re x_6 (re.++ (re.* re.allchar) (re.++ (str.to.re "\x5c\x3c\x53\x43\x52\x49\x50\x54") (re.* re.allchar)))))
(check-sat)
(get-model)
